1 0 
2 3 
3 12 
4 25 
5 4 
6 11 
7 20 
8 21 
9 10 
10 20 
11 13 
12 14 
13 16 
14 17 
15 11 
16 36 
17 6 
18 7 
19 21 
20 11 
21 17 
22 22 
23 10 
24 19 
25 21 
26 23 
27 19 
28 15 
29 22 
30 7 
31 11 
32 15 
33 22 
34 12 
35 24 
36 25 
37 2 
38 15 
39 18 
40 13 
41 3 
42 20 
43 14 
44 10 
45 10 
46 66 
47 10 
48 7 
49 12 
50 24 
51 5 
52 18 
53 7 
54 11 
55 12 
